26322
68,314,365,472,473,475,539,573,589,599,621,643,746,807,830,871,872,908,1011,1143,1228,1231,1267,1322,1361,1426,1628,1667,1748,1799,1910,2139,2505,2509,2519,2576,2684,2720,2744,2815,2896,2957,3032,3043,3051,3215,3216,3272,3336,3397,3451,3589,3593,3599,3791,4026,4131,4159,4308,4321,4326,4354,4460,4487,4630,4679,4717,4725,4782,4887
